(set-logic QF_FPBV)
(set-option :produce-models true)
(set-info :source |Random FP created by PyMPF|)
(set-info :category random)
(set-info :status sat)
;; fp.from.ubv(BitVec 32)
(declare-const x (_ BitVec 32))
(assert (= x #b10111100001101011101011010111101))
;; x should be 3157644989
(declare-const r Float64)
(assert (= r ((_ to_fp_unsigned 11 53) RTP x)))
(assert (fp.eq r ((_ to_fp 11 53) #x41E786BAD7A00000)))
(check-sat)
(exit)
